400 1584 
1 5 1
1 6 1
1 72 1
1 76 1
1 123 1
1 124 1
1 127 1
1 248 1
1 285 1
2 5 1
2 7 1
2 8 1
2 9 1
2 10 1
2 11 1
2 12 1
2 15 1
2 20 1
2 22 1
2 26 1
2 29 1
2 31 1
2 32 1
2 37 1
2 43 1
2 45 1
2 51 1
2 55 1
2 63 1
2 66 1
2 70 1
2 73 1
2 75 1
2 77 1
2 84 1
2 90 1
2 93 1
2 96 1
2 98 1
2 103 1
2 107 1
2 112 1
2 119 1
2 121 1
2 136 1
2 156 1
2 171 1
2 179 1
2 192 1
2 194 1
2 208 1
2 210 1
2 231 1
2 241 1
2 244 1
2 247 1
2 287 1
2 296 1
2 298 1
2 314 1
2 334 1
2 351 1
2 353 1
2 378 1
2 382 1
2 383 1
2 385 1
2 392 1
3 5 1
3 6 1
3 8 1
3 20 1
3 22 1
3 23 1
3 29 1
3 40 1
3 119 1
3 169 1
4 5 1
4 6 1
4 7 1
4 8 1
4 9 1
4 10 1
4 11 1
4 12 1
4 14 1
4 16 1
4 17 1
4 18 1
4 19 1
4 20 1
4 23 1
4 24 1
4 26 1
4 32 1
4 36 1
4 38 1
4 42 1
4 47 1
4 49 1
4 50 1
4 53 1
4 62 1
4 67 1
4 70 1
4 81 1
4 92 1
4 96 1
4 100 1
4 114 1
4 142 1
4 158 1
4 166 1
4 174 1
4 181 1
4 185 1
4 186 1
4 188 1
4 198 1
4 204 1
4 209 1
4 216 1
4 229 1
4 237 1
4 239 1
4 240 1
4 241 1
4 243 1
4 249 1
4 253 1
4 285 1
4 298 1
4 300 1
4 312 1
4 325 1
4 343 1
4 356 1
5 6 1
5 7 1
5 9 1
5 14 1
5 18 1
5 27 1
5 33 1
5 39 1
5 41 1
5 47 1
5 48 1
5 72 1
5 77 1
5 86 1
5 95 1
5 113 1
5 121 1
5 124 1
5 129 1
5 141 1
5 145 1
5 148 1
5 153 1
5 165 1
5 166 1
5 186 1
5 189 1
5 218 1
5 253 1
5 280 1
5 339 1
5 345 1
5 351 1
5 363 1
5 395 1
5 399 1
6 7 1
6 9 1
6 10 1
6 21 1
6 39 1
6 46 1
6 51 1
6 58 1
6 64 1
6 72 1
6 77 1
6 110 1
6 130 1
6 131 1
6 133 1
6 165 1
6 168 1
6 177 1
6 199 1
6 300 1
6 331 1
7 8 1
7 13 1
7 16 1
7 31 1
7 36 1
7 52 1
7 53 1
7 55 1
7 59 1
7 61 1
7 65 1
7 67 1
7 68 1
7 74 1
7 76 1
7 80 1
7 85 1
7 93 1
7 97 1
7 108 1
7 129 1
7 163 1
7 184 1
7 204 1
7 227 1
7 235 1
7 238 1
7 253 1
7 255 1
7 283 1
7 287 1
7 292 1
7 306 1
7 316 1
7 326 1
7 331 1
7 359 1
8 12 1
8 15 1
8 17 1
8 22 1
8 26 1
8 27 1
8 33 1
8 38 1
8 39 1
8 40 1
8 45 1
8 49 1
8 58 1
8 61 1
8 66 1
8 71 1
8 91 1
8 115 1
8 116 1
8 123 1
8 132 1
8 148 1
8 157 1
8 185 1
8 213 1
8 226 1
8 240 1
8 248 1
8 312 1
8 340 1
8 367 1
8 398 1
9 10 1
9 11 1
9 13 1
9 15 1
9 17 1
9 18 1
9 21 1
9 22 1
9 25 1
9 30 1
9 43 1
9 45 1
9 47 1
9 49 1
9 52 1
9 54 1
9 63 1
9 79 1
9 87 1
9 92 1
9 96 1
9 103 1
9 107 1
9 112 1
9 116 1
9 122 1
9 126 1
9 128 1
9 152 1
9 159 1
9 163 1
9 164 1
9 175 1
9 176 1
9 178 1
9 196 1
9 202 1
9 210 1
9 216 1
9 230 1
9 240 1
9 245 1
9 255 1
9 257 1
9 260 1
9 275 1
9 292 1
9 294 1
9 338 1
9 349 1
9 352 1
9 353 1
9 354 1
9 366 1
9 371 1
9 374 1
9 379 1
9 392 1
9 393 1
10 11 1
10 12 1
10 13 1
10 14 1
10 28 1
10 30 1
10 40 1
10 58 1
10 63 1
10 74 1
10 94 1
10 101 1
10 146 1
10 184 1
10 222 1
10 332 1
10 352 1
10 361 1
11 13 1
11 15 1
11 16 1
11 17 1
11 18 1
11 19 1
11 24 1
11 28 1
11 30 1
11 33 1
11 48 1
11 50 1
11 53 1
11 73 1
11 83 1
11 86 1
11 87 1
11 89 1
11 93 1
11 97 1
11 99 1
11 102 1
11 109 1
11 110 1
11 112 1
11 114 1
11 122 1
11 126 1
11 128 1
11 135 1
11 144 1
11 147 1
11 151 1
11 158 1
11 162 1
11 164 1
11 166 1
11 186 1
11 187 1
11 213 1
11 214 1
11 218 1
11 227 1
11 266 1
11 271 1
11 276 1
11 284 1
11 286 1
11 288 1
11 294 1
11 327 1
11 331 1
11 364 1
11 372 1
11 378 1
11 384 1
11 388 1
12 14 1
12 23 1
12 37 1
12 40 1
12 46 1
12 52 1
12 60 1
12 65 1
12 75 1
12 86 1
12 101 1
12 117 1
12 168 1
12 184 1
12 190 1
12 216 1
12 221 1
12 224 1
12 251 1
12 257 1
12 284 1
12 285 1
12 288 1
12 299 1
12 321 1
12 327 1
12 348 1
13 16 1
13 19 1
13 30 1
13 110 1
13 111 1
13 123 1
13 131 1
13 369 1
14 23 1
14 32 1
14 67 1
14 71 1
14 80 1
14 84 1
14 89 1
14 95 1
14 105 1
14 132 1
14 143 1
14 147 1
14 220 1
14 232 1
14 233 1
14 250 1
14 251 1
14 271 1
14 280 1
14 363 1
14 373 1
15 20 1
15 25 1
15 28 1
15 31 1
15 35 1
15 48 1
15 54 1
15 105 1
15 118 1
15 122 1
15 138 1
15 159 1
15 169 1
15 170 1
15 203 1
15 220 1
15 223 1
15 225 1
15 226 1
15 231 1
15 278 1
15 297 1
15 351 1
15 368 1
15 375 1
15 389 1
16 21 1
16 24 1
16 48 1
16 76 1
16 82 1
16 90 1
16 97 1
16 100 1
16 108 1
16 128 1
16 256 1
16 295 1
16 336 1
16 337 1
16 366 1
16 388 1
17 26 1
17 27 1
17 33 1
17 35 1
17 38 1
17 50 1
17 80 1
17 85 1
17 94 1
17 112 1
17 214 1
17 302 1
17 303 1
17 333 1
18 19 1
18 24 1
18 34 1
18 45 1
18 46 1
18 58 1
18 66 1
18 70 1
18 101 1
18 111 1
18 130 1
18 143 1
18 160 1
18 190 1
18 199 1
18 232 1
18 245 1
18 261 1
18 263 1
18 315 1
18 335 1
18 358 1
19 25 1
19 207 1
19 266 1
20 21 1
20 29 1
20 32 1
20 34 1
20 44 1
20 54 1
20 57 1
20 94 1
20 109 1
20 144 1
20 167 1
20 170 1
20 301 1
20 311 1
20 345 1
20 353 1
21 27 1
21 29 1
21 56 1
21 78 1
21 96 1
21 116 1
21 117 1
21 122 1
21 150 1
21 178 1
21 185 1
21 255 1
21 338 1
21 368 1
21 387 1
22 25 1
22 28 1
22 39 1
22 46 1
22 51 1
22 62 1
22 71 1
22 82 1
22 88 1
22 148 1
22 150 1
22 180 1
22 209 1
22 247 1
22 288 1
22 293 1
22 346 1
23 68 1
23 91 1
23 97 1
23 144 1
23 212 1
23 235 1
23 236 1
23 301 1
24 74 1
24 75 1
24 187 1
24 190 1
24 260 1
24 276 1
25 34 1
25 49 1
25 50 1
25 69 1
25 88 1
25 91 1
25 189 1
25 198 1
25 202 1
25 264 1
25 350 1
25 369 1
25 381 1
26 36 1
26 37 1
26 42 1
26 57 1
26 68 1
26 150 1
26 219 1
26 254 1
26 286 1
26 390 1
27 42 1
27 80 1
27 93 1
27 106 1
27 123 1
27 124 1
27 129 1
27 142 1
27 149 1
27 168 1
27 173 1
27 188 1
27 211 1
27 268 1
27 308 1
27 322 1
27 336 1
27 344 1
27 396 1
28 31 1
28 35 1
28 53 1
28 64 1
28 89 1
28 118 1
28 130 1
28 133 1
28 149 1
28 176 1
28 195 1
28 200 1
28 206 1
28 209 1
28 232 1
28 265 1
28 270 1
28 273 1
28 311 1
28 314 1
28 315 1
28 319 1
28 368 1
28 376 1
28 378 1
28 394 1
29 34 1
29 35 1
29 36 1
29 41 1
29 55 1
29 60 1
29 64 1
29 70 1
29 88 1
29 98 1
29 127 1
29 151 1
29 183 1
29 222 1
29 264 1
29 296 1
29 341 1
29 354 1
30 41 1
30 62 1
30 73 1
30 83 1
30 120 1
30 174 1
30 180 1
30 253 1
30 324 1
30 325 1
30 357 1
31 43 1
31 68 1
31 298 1
31 328 1
32 44 1
32 102 1
32 137 1
32 152 1
32 174 1
32 203 1
32 251 1
32 304 1
32 363 1
32 400 1
33 59 1
33 63 1
33 71 1
33 120 1
33 138 1
33 192 1
33 234 1
33 264 1
33 301 1
33 320 1
33 374 1
33 395 1
34 37 1
34 57 1
34 137 1
34 156 1
34 250 1
34 339 1
34 347 1
35 208 1
36 38 1
36 54 1
36 98 1
36 135 1
36 171 1
36 200 1
36 209 1
36 213 1
36 224 1
36 229 1
36 262 1
36 284 1
36 317 1
36 361 1
36 373 1
36 374 1
36 384 1
37 41 1
37 52 1
37 56 1
37 79 1
37 108 1
37 115 1
37 167 1
37 331 1
38 72 1
38 175 1
38 338 1
38 340 1
39 95 1
39 114 1
39 258 1
40 87 1
40 101 1
40 109 1
40 118 1
40 134 1
40 234 1
40 284 1
40 297 1
40 307 1
40 337 1
40 365 1
40 370 1
41 42 1
41 43 1
41 44 1
41 56 1
41 66 1
41 73 1
41 79 1
41 83 1
41 149 1
41 159 1
41 161 1
41 172 1
41 182 1
41 233 1
41 240 1
41 265 1
41 273 1
41 282 1
41 319 1
41 333 1
41 388 1
41 391 1
41 397 1
42 44 1
42 51 1
42 59 1
42 78 1
42 81 1
42 90 1
42 99 1
42 102 1
42 104 1
42 106 1
42 153 1
42 154 1
42 163 1
42 221 1
42 242 1
42 283 1
42 369 1
42 370 1
43 81 1
43 192 1
43 296 1
43 322 1
43 340 1
43 356 1
44 85 1
44 104 1
44 153 1
44 157 1
44 165 1
44 182 1
44 290 1
44 301 1
45 47 1
45 157 1
45 164 1
45 387 1
46 61 1
46 104 1
46 119 1
46 156 1
46 177 1
46 189 1
46 201 1
46 238 1
46 270 1
46 314 1
46 391 1
46 395 1
47 77 1
47 81 1
47 139 1
47 154 1
47 266 1
47 379 1
48 64 1
48 132 1
48 140 1
48 149 1
48 259 1
48 274 1
49 56 1
49 82 1
49 92 1
49 100 1
49 134 1
49 172 1
49 173 1
49 177 1
49 188 1
49 238 1
49 294 1
49 335 1
50 55 1
50 57 1
50 60 1
50 84 1
50 119 1
50 193 1
50 257 1
50 355 1
50 368 1
50 400 1
51 59 1
51 61 1
51 89 1
51 107 1
51 353 1
51 362 1
52 65 1
52 76 1
52 103 1
52 345 1
53 69 1
53 78 1
53 111 1
53 136 1
53 158 1
53 228 1
53 332 1
54 216 1
54 222 1
54 230 1
54 262 1
54 306 1
55 62 1
55 65 1
55 121 1
55 198 1
55 349 1
55 399 1
56 79 1
56 125 1
56 136 1
56 194 1
56 248 1
56 250 1
56 293 1
57 272 1
58 91 1
58 129 1
58 140 1
58 219 1
58 311 1
59 60 1
59 67 1
59 243 1
59 291 1
60 362 1
61 69 1
61 128 1
61 146 1
61 152 1
61 225 1
61 306 1
61 365 1
62 98 1
62 197 1
62 215 1
62 311 1
62 371 1
62 379 1
63 138 1
63 139 1
63 161 1
63 178 1
63 196 1
64 82 1
64 133 1
64 151 1
64 187 1
64 199 1
64 254 1
64 382 1
65 86 1
65 116 1
65 159 1
65 228 1
65 261 1
66 69 1
66 74 1
66 90 1
66 114 1
66 132 1
66 165 1
66 248 1
66 342 1
67 75 1
67 83 1
67 92 1
67 125 1
67 134 1
67 140 1
67 141 1
67 143 1
67 144 1
67 146 1
67 148 1
67 169 1
67 184 1
67 244 1
67 254 1
67 263 1
67 283 1
67 329 1
67 361 1
67 382 1
68 84 1
68 88 1
68 100 1
68 160 1
68 192 1
68 199 1
68 237 1
68 339 1
69 127 1
69 135 1
69 162 1
69 200 1
69 267 1
69 280 1
69 339 1
69 377 1
70 105 1
70 124 1
70 267 1
70 277 1
70 279 1
70 317 1
71 120 1
71 174 1
71 223 1
71 225 1
71 277 1
71 310 1
71 320 1
71 329 1
72 103 1
72 134 1
73 153 1
73 177 1
73 180 1
73 193 1
73 277 1
73 317 1
73 357 1
74 78 1
74 87 1
74 117 1
74 125 1
74 145 1
74 160 1
74 257 1
74 258 1
74 310 1
74 343 1
74 370 1
74 397 1
75 94 1
75 110 1
75 125 1
75 130 1
75 156 1
75 158 1
75 163 1
75 241 1
75 333 1
76 85 1
76 273 1
77 161 1
77 187 1
77 305 1
77 344 1
77 358 1
77 390 1
78 121 1
78 323 1
78 349 1
79 99 1
79 117 1
79 200 1
79 201 1
79 341 1
79 373 1
80 228 1
80 250 1
80 269 1
80 352 1
81 105 1
81 107 1
81 296 1
81 352 1
82 146 1
82 169 1
82 178 1
82 212 1
82 222 1
82 226 1
83 111 1
83 227 1
83 309 1
83 322 1
84 154 1
85 152 1
85 180 1
85 193 1
86 113 1
86 151 1
86 167 1
86 244 1
86 289 1
86 336 1
87 118 1
87 207 1
87 258 1
87 263 1
87 337 1
87 385 1
88 274 1
88 334 1
89 115 1
89 142 1
89 179 1
89 203 1
89 275 1
89 323 1
89 393 1
90 147 1
90 230 1
90 246 1
90 321 1
90 361 1
92 106 1
92 140 1
92 162 1
92 214 1
92 265 1
92 332 1
93 95 1
93 126 1
93 141 1
93 162 1
93 171 1
93 211 1
93 238 1
93 359 1
93 378 1
93 383 1
94 133 1
94 147 1
94 154 1
94 157 1
94 205 1
94 305 1
95 99 1
95 102 1
95 108 1
95 142 1
95 212 1
95 247 1
95 356 1
97 269 1
98 106 1
98 183 1
98 196 1
98 211 1
98 314 1
98 351 1
99 164 1
99 217 1
99 218 1
99 262 1
99 333 1
100 104 1
100 131 1
100 155 1
100 183 1
100 195 1
100 212 1
100 259 1
100 358 1
101 325 1
102 109 1
102 120 1
102 139 1
102 195 1
102 281 1
102 305 1
102 318 1
102 348 1
103 204 1
103 206 1
103 210 1
103 252 1
103 295 1
103 362 1
103 376 1
103 393 1
104 326 1
104 347 1
105 127 1
105 137 1
105 143 1
105 269 1
105 298 1
105 316 1
106 278 1
106 324 1
106 386 1
107 313 1
107 354 1
109 190 1
109 273 1
111 113 1
111 131 1
111 249 1
112 113 1
113 115 1
113 244 1
113 285 1
113 316 1
113 393 1
114 350 1
115 150 1
115 191 1
115 326 1
116 126 1
116 347 1
116 380 1
117 175 1
117 197 1
117 224 1
118 202 1
118 259 1
118 290 1
118 302 1
118 303 1
118 307 1
118 343 1
119 172 1
119 195 1
119 225 1
120 139 1
120 208 1
120 282 1
120 349 1
120 398 1
121 337 1
122 135 1
122 283 1
122 312 1
122 394 1
124 137 1
124 145 1
124 181 1
124 183 1
124 279 1
124 330 1
124 400 1
125 191 1
125 263 1
125 272 1
126 181 1
127 179 1
127 224 1
127 278 1
127 320 1
128 160 1
128 191 1
128 204 1
128 219 1
128 234 1
128 260 1
128 321 1
129 310 1
130 138 1
130 141 1
130 182 1
130 201 1
130 245 1
130 252 1
130 267 1
130 269 1
130 330 1
130 357 1
130 394 1
131 208 1
131 256 1
131 357 1
131 395 1
132 194 1
132 214 1
132 236 1
132 255 1
132 302 1
132 313 1
132 348 1
132 365 1
133 155 1
133 175 1
133 205 1
133 211 1
133 246 1
133 249 1
133 252 1
133 315 1
133 318 1
133 335 1
133 381 1
134 136 1
134 145 1
134 170 1
134 181 1
134 219 1
134 237 1
134 281 1
134 287 1
136 221 1
136 233 1
136 280 1
137 218 1
138 176 1
138 390 1
139 167 1
139 189 1
139 229 1
139 233 1
139 258 1
139 271 1
139 281 1
139 289 1
139 309 1
139 387 1
140 380 1
141 179 1
141 223 1
141 256 1
141 316 1
141 372 1
142 161 1
142 234 1
143 155 1
143 264 1
143 319 1
144 274 1
144 327 1
145 194 1
146 289 1
147 197 1
147 286 1
148 206 1
149 232 1
151 166 1
151 168 1
151 228 1
151 239 1
152 155 1
152 231 1
153 191 1
154 205 1
154 215 1
154 274 1
154 282 1
154 291 1
154 359 1
154 385 1
155 182 1
155 217 1
155 328 1
155 372 1
155 392 1
156 171 1
156 202 1
156 227 1
156 268 1
156 341 1
156 377 1
157 196 1
157 270 1
157 325 1
157 332 1
158 170 1
158 176 1
158 243 1
159 377 1
160 396 1
161 215 1
161 358 1
162 231 1
162 364 1
163 350 1
164 173 1
164 205 1
164 207 1
164 245 1
164 290 1
164 299 1
164 324 1
164 330 1
164 383 1
165 173 1
165 229 1
165 235 1
165 342 1
166 213 1
166 237 1
166 399 1
167 172 1
167 291 1
169 254 1
169 259 1
169 346 1
170 185 1
170 206 1
170 220 1
170 239 1
170 243 1
170 343 1
171 236 1
171 327 1
172 391 1
173 265 1
173 272 1
173 299 1
173 319 1
173 383 1
173 389 1
174 186 1
174 360 1
175 308 1
175 346 1
176 276 1
176 399 1
177 188 1
177 193 1
177 335 1
177 362 1
178 198 1
178 201 1
178 366 1
178 379 1
179 203 1
180 217 1
180 230 1
180 329 1
181 310 1
182 374 1
183 324 1
184 197 1
184 261 1
184 277 1
184 308 1
184 338 1
184 366 1
185 207 1
186 239 1
186 344 1
188 375 1
189 309 1
189 340 1
191 220 1
191 300 1
191 318 1
193 236 1
193 313 1
193 392 1
194 290 1
195 308 1
197 210 1
197 318 1
197 367 1
199 221 1
200 341 1
202 261 1
202 268 1
202 271 1
202 303 1
202 387 1
203 215 1
204 276 1
205 242 1
205 304 1
205 385 1
207 260 1
208 256 1
208 304 1
210 272 1
210 282 1
210 320 1
211 268 1
211 297 1
212 312 1
213 217 1
213 348 1
214 223 1
214 305 1
214 386 1
215 306 1
216 275 1
216 302 1
216 367 1
218 246 1
219 293 1
220 241 1
221 226 1
221 242 1
221 246 1
221 275 1
221 292 1
221 390 1
222 384 1
223 386 1
225 309 1
226 235 1
226 251 1
226 328 1
227 389 1
228 242 1
229 346 1
232 249 1
233 247 1
233 288 1
233 330 1
233 355 1
233 394 1
237 287 1
238 289 1
238 334 1
242 307 1
243 372 1
244 267 1
244 317 1
245 262 1
246 270 1
247 334 1
249 278 1
249 279 1
249 299 1
249 386 1
250 252 1
252 323 1
253 286 1
254 315 1
254 364 1
255 295 1
255 303 1
255 364 1
256 266 1
257 300 1
262 350 1
264 292 1
264 307 1
264 323 1
264 380 1
266 342 1
267 279 1
268 355 1
269 304 1
270 322 1
271 377 1
274 291 1
274 354 1
276 281 1
277 363 1
279 329 1
279 382 1
281 345 1
281 400 1
282 326 1
282 373 1
283 295 1
286 294 1
288 391 1
289 293 1
289 336 1
289 396 1
290 297 1
295 369 1
297 365 1
297 371 1
298 380 1
299 313 1
299 398 1
302 321 1
304 342 1
304 355 1
307 396 1
310 328 1
310 347 1
310 360 1
311 371 1
315 344 1
318 367 1
322 360 1
322 376 1
331 359 1
331 360 1
339 381 1
343 384 1
345 370 1
346 356 1
346 375 1
346 397 1
355 388 1
358 375 1
362 376 1
369 381 1
375 397 1
376 389 1
377 398 1
